(set-info :source  loris-7.ddns.comp.nus.edu.sg/~project/hip/) 
;Variables declarations
(declare-fun flted_13_11731 () Int)
(declare-fun nb () Int)
(declare-fun a_primed () Int)
(declare-fun c_primed () Int)
(declare-fun flted_262_11654 () Int)
(declare-fun flted_262_11653 () Int)
(declare-fun b () Int)
(declare-fun flted_262_11656 () Int)
(declare-fun flted_262_11655 () Int)
(declare-fun na () Int)
(declare-fun a () Int)
(declare-fun b_primed () Int)
(declare-fun Anon_11735 () Int)
(declare-fun bhl_11736 () Int)
(declare-fun nl_11734 () Int)
(declare-fun l_11733 () Int)
(declare-fun Anon_11739 () Int)
(declare-fun bhr_11740 () Int)
(declare-fun nr_11738 () Int)
(declare-fun r_11737 () Int)
(declare-fun flted_262_11652 () Int)
(declare-fun h () Int)
(declare-fun nc () Int)
(declare-fun c () Int)
;Relations declarations
;Axioms assertions
;Antecedent
(assert (= flted_13_11731 0))
(assert (= nb (+ (+ nr_11738 1) nl_11734)))
(assert (= bhl_11736 bhr_11740))
(assert (= flted_262_11653 (+ bhl_11736 1)))
(assert (= a_primed a))
(assert (= b_primed b))
(assert (= c_primed c))
(assert (= flted_262_11656 0))
(assert (= flted_262_11655 (+ 1 h)))
(assert (= flted_262_11654 0))
(assert (= flted_262_11653 (+ 1 h)))
(assert (= flted_262_11652 0))
(assert (> b 0))
(assert true)
(assert (or (and (and (and (= flted_262_11656 0) (<= 2 flted_262_11655)) (<= 1 na)) (> a 0)) (or (and (and (and (< a 1) (= na 0)) (= flted_262_11655 1)) (= flted_262_11656 0)) (and (and (and (= flted_262_11656 1) (<= 1 flted_262_11655)) (<= 1 na)) (> a 0)))))
(assert (= b_primed 1))
(assert (or (and (and (and (= Anon_11735 0) (<= 2 bhl_11736)) (<= 1 nl_11734)) (> l_11733 0)) (or (and (and (and (< l_11733 1) (= nl_11734 0)) (= bhl_11736 1)) (= Anon_11735 0)) (and (and (and (= Anon_11735 1) (<= 1 bhl_11736)) (<= 1 nl_11734)) (> l_11733 0)))))
(assert (or (and (and (and (= Anon_11739 0) (<= 2 bhr_11740)) (<= 1 nr_11738)) (> r_11737 0)) (or (and (and (and (< r_11737 1) (= nr_11738 0)) (= bhr_11740 1)) (= Anon_11739 0)) (and (and (and (= Anon_11739 1) (<= 1 bhr_11740)) (<= 1 nr_11738)) (> r_11737 0)))))
(assert (or (and (and (and (= flted_262_11652 0) (<= 2 h)) (<= 1 nc)) (> c 0)) (or (and (and (and (< c 1) (= nc 0)) (= h 1)) (= flted_262_11652 0)) (and (and (and (= flted_262_11652 1) (<= 1 h)) (<= 1 nc)) (> c 0)))))
;Negation of Consequence
(assert (not false))
(check-sat)